p cnf 7230 18
2504 4740 4748 4776 4780 5270 0
-4188 -4204 -4766 5273 0
-3638 -3666 -4768 5271 0
-4748 -5270 0
4188 -5274 0
3638 -5272 0
-4776 -5270 0
4204 -5274 0
3666 -5272 0
-5273 5274 0
-5271 5272 0
4766 -5274 0
4768 -5272 0
5269 5270 0
4770 -5276 0
4202 -5276 0
4190 -5276 0
-5269 -5270 0
